55151
39, 23, 53, 26, 49, 48, 19, 44, 38, 32, 41, 13, 5, 35, 40, 43, 3, 6, 28, 55, 42, 27, 1, 31, 25, 52, 15, 36, 46, 16, 10, 22, 29, 21, 34, 12, 18, 4, 30, 47, 17, 8, 24, 50, 20, 7, 37, 51, 54, 9, 14, 2, 45, 11, 33
